ITEM = 1..25;
capacity1 = 247;
capacity2 = 247;
capacity3 = 247;
profits = [40, 43, 74, 54, 95, 20, 71, 21, 58, 74, 20, 57, 34, 89, 22, 34, 30, 45, 61, 21, 44, 67, 32, 64, 44];
weights = [71, 35, 80, 73, 95, 38, 66, 18, 50, 70, 19, 92, 67, 91, 18, 79, 26, 60, 72, 54, 52, 68, 74, 67, 49];
